10,1,8,1,8,2,6,3,1,2,3,4,7,4,8,5,6,5;9,1,5,1,5,2,9,2,3,3,1,1,2,4,8,3,1,3,4,4,10,5;4,1,2,1,6,2,2,2,5,3,10,3,10,4,9,4,5,4,9,5,1,5;3,1,6,1,4,2,10,2,2,3,4,3,8,4,6,4,1,4,4,5;7,1,3,2,7,2,7,3,9,3,2,5,7,5,5,5,3,5;
